0 48 59 34 89 21 10 61 80 1 10 72 42 30 43 
48 0 79 4 9 85 59 19 2 49 23 64 38 1 11 
59 79 0 23 71 66 98 95 58 28 23 62 63 56 56 
34 4 23 0 45 58 99 20 36 1 1 44 66 91 54 
89 9 71 45 0 61 50 35 72 56 39 90 47 14 99 
21 85 66 58 61 0 67 10 59 64 37 38 71 29 80 
10 59 98 99 50 67 0 34 1 39 4 1 88 87 68 
61 19 95 20 35 10 34 0 81 15 23 27 1 52 94 
80 2 58 36 72 59 1 81 0 33 14 16 21 84 83 
1 49 28 1 56 64 39 15 33 0 27 44 70 63 92 
10 23 23 1 39 37 4 23 14 27 0 99 59 20 89 
72 64 62 44 90 38 1 27 16 44 99 0 9 21 65 
42 38 63 66 47 71 88 1 21 70 59 9 0 30 15 
30 1 56 91 14 29 87 52 84 63 20 21 30 0 16 
43 11 56 54 99 80 68 94 83 92 89 65 15 16 0 
